unsat
(:cnf-encoding-aux-vars 77
 :elim-unconstrained    4
 :max-memory            18.98
 :memory                18.64
 :nlsat-arith-var       10
 :nlsat-atoms           131
 :nlsat-bool-var        88
 :nlsat-clauses         409
 :nlsat-conflicts       2
 :nlsat-decisions       3
 :nlsat-propagations    8
 :num-allocs            170683
 :rlimit-count          41461
 :solve-eqs-elim-vars   57
 :solve-eqs-steps       185
 :time                  0.01
 :total-time            0.03)
